
$molecule
  0 1
C -1.8127051702 2.7860007786 0.0008423351
C -2.5461355582 1.5780903815 -0.0365083693
C -1.8027265689 0.3869861731 -0.0209827631
C -0.4151457645 0.3765591152 -0.0027118647
C 0.2940523566 1.5668240062 0.0254189573
C -0.4165584161 2.782683732 0.0305200166
C 1.7975996025 1.4517115419 0.0100424549
O 0.1605724503 4.0164472984 0.0011857975
H 1.1362461459 4.14453076 0.1167334955
O 2.3958769624 0.262947819 -0.0091345926
H 3.4079193527 0.2952439029 -0.0712995202
O 2.5201967103 2.4863625009 -0.0065359594
H -2.2602532112 3.7681523388 -0.0390618736
H -3.6484001618 1.6173599082 0.0907833783
H -2.233692748 -0.5708288204 0.0141934411
H 0.0737546506 -0.5909464685 0.0397014961
$end

$rem
jobtype                 OPT
GEOM_OPT_COORDS         0
basis                   6-31G
TSVDW                   TRUE
symmetry                false
sym_ignore              true
method                  PBE
aimd_thermostat         nose_hoover
aimd_init_veloc         thermal
aimd_temp               450        !in K - initial conditions AND thermostat
$end
