
$molecule
  0 1
C -1.8125540769 2.7851029197 0.0008532009
C -2.5514119954 1.57776879 -0.0425517817
C -1.7990204105 0.389324703 -0.0247132384
C -0.4139710088 0.3771137517 -0.0031145845
C 0.2924679273 1.5636512236 0.0298994142
C -0.4159633219 2.7777660784 0.0357801376
C 1.7954843817 1.450668998 0.0118099179
O 0.1586115963 4.014666541 0.0013870685
H 1.152323771 4.119967956 0.1373944762
O 2.3972500621 0.2636624485 -0.0107758112
H 3.4112766937 0.3289476991 -0.0832714258
O 2.5205771688 2.4927788974 -0.0076645495
H -2.2449669972 3.7830885873 -0.0451823876
H -3.6549719606 1.6218599367 0.1040023414
H -2.2241836018 -0.5922546256 0.0166996945
H 0.0792616443 -0.5941943931 0.0461896175
$end

$rem
jobtype                 OPT
GEOM_OPT_COORDS         0
basis                   6-31G
TSVDW                   TRUE
symmetry                false
sym_ignore              true
method                  PBE
aimd_thermostat         nose_hoover
aimd_init_veloc         thermal
aimd_temp               450        !in K - initial conditions AND thermostat
$end
