$molecule
0 1
C	1.137420388	0.029576564	1.187580049	
C	0.087946577	-0.688858971	1.672436403	
N	-0.980165494	-0.906520181	0.806536632	
C	-1.039910819	-0.432198751	-0.534023956	
N	0.004311676	0.383078475	-0.873576702	
C	1.089210364	0.681752536	-0.100527416	
O	-1.985295947	-0.703314527	-1.287048326	
O	1.874601536	1.558837033	-0.564452470	
H	-0.023510721	-1.163167820	2.672265049	
H	-1.832863185	-1.341190171	1.105579340	
H	-0.029488491	0.859702984	-1.776887513	
H	2.006835921	0.219923799	1.815438187	
$end

$rem
jobtype                force
exchange               PBE
correlation            PBE
basis                  6-31G
SCF_CONVERGENCE 11
symmetry false
sym_ignore true
$end
