$molecule
0 1
C	1.21238773	0.11934573	1.12336494	
C	0.27795805	-0.77559402	1.55254456	
N	-0.83301873	-1.02272272	0.79391547	
C	-1.08935878	-0.41897305	-0.51446736	
N	-0.02818888	0.34494393	-0.94313243	
C	1.05062057	0.75541527	-0.11270664	
O	-2.15791876	-0.75738185	-1.13702602	
O	1.78198174	1.70059753	-0.48614264	
H	0.26958048	-1.32980550	2.46354171	
H	-1.49480009	-1.73094623	1.05184644	
H	-0.17231383	0.88010939	-1.80073333	
H	2.10117797	0.48247751	1.73209796	
$end

$rem
jobtype                force
exchange               HF
correlation            PBE
basis                  6-31G
SCF_CONVERGENCE 11
symmetry false
sym_ignore true
$end
