$molecule
0 1
C	1.221618266	0.118172959	1.139499079	
C	0.277240841	-0.773920638	1.548885314	
N	-0.833061492	-1.021800396	0.787131052	
C	-1.075741665	-0.408689789	-0.517680160	
N	-0.028009717	0.345776229	-0.942878894	
C	1.052081759	0.759577698	-0.116206631	
O	-2.150520576	-0.755620832	-1.135559771	
O	1.781315107	1.699608657	-0.485575439	
H	0.269354612	-1.329474778	2.461098614	
H	-1.496332579	-1.731706435	1.052147514	
H	-0.172404574	0.880176170	-1.800561652	
H	2.111559755	0.485607935	1.735974328	
$end

$rem
jobtype                force
exchange               PBE
correlation            PBE
basis                  6-31G
SCF_CONVERGENCE 11
symmetry false
sym_ignore true
$end
