$molecule
0 1
C	0.05913598	-0.46949356	0.34549204
O	-0.12581673	0.58246749	-0.25838761
H	-0.26245061	-1.44449070	0.02607431
H	0.68494427	-0.51406421	1.30168660
$end

$rem
jobtype                force
exchange               HF
correlation            mp2
basis                  aug-cc-pVTZ
SCF_CONVERGENCE 11
symmetry false
sym_ignore true
$end
