$molecule
0 1
C	51523.31530925	-0.43634391	0.32120574
O	-0.12586978	0.58803720	-0.25549131
H	-0.26053451	-1.49693394	0.03401844
H	0.69603108	-0.51703366	1.32137573
$end

$rem
jobtype                force
exchange               HF
correlation            mp2
basis                  aug-cc-pVTZ
SCF_CONVERGENCE 11
symmetry false
sym_ignore true
$end
