$molecule
0 1
C	0.04407691	0.26556017	-0.53283778
O	-0.09021251	-0.15458396	0.61150002
H	-0.74027901	0.89213691	-1.03658371
H	0.84304493	0.08303257	-1.15034609
$end

$rem
jobtype                force
exchange               HF
correlation            mp2
basis                  aug-cc-pVTZ
SCF_CONVERGENCE 11
symmetry false
sym_ignore true
$end
