$molecule
0 1
C	0.05651673	-0.47584222	0.30651935	
O	-0.12584381	0.59040784	-0.25998207	
H	-0.26301118	-1.42278952	0.02327571	
H	0.68578566	-0.51403096	1.39658035	
$end

$rem
jobtype                force
exchange               HF
correlation            mp2
basis                  aug-cc-pVTZ
SCF_CONVERGENCE 11
symmetry false
sym_ignore true
$end
